[[10, 58, 72, 12, 26, 17, 6, 51, 40, 9, 39, 31, 25, 55], [18, 50, 32, 44, 3, 24, 49, 16, 33, 63, 23, 56], [43, 41, 42, 64, 22, 73, 62, 61, 28, 74, 2, 30, 48, 21], [47, 36, 69, 71, 60, 70, 20, 37, 5, 15, 57, 54, 13, 52, 27, 29, 45, 4], [68, 75, 76, 67, 34, 46, 8, 7, 35, 19, 53, 14, 59, 11, 66, 38, 65]]